#######################



#######################
Set parameter TimeLimit to value 500
Set parameter SoftMemLimit to value 125
Set parameter MIPFocus to value 3
Set parameter LogFile to value 1003-MIPFocus3-Presolve1-TimeLimit500-k16x240-2.log
Set parameter Presolve to value 1
Set parameter Seed to value 12
Using license file /opt/gurobi/gurobi.lic

Gurobi Optimizer version 10.0.3 build v10.0.3rc0 (linux64)
Copyright (c) 2023, Gurobi Optimization, LLC

Read MPS format model from file /miplib2010/k16x240.mps.bz2
Reading time = 0.00 seconds
k16x240: 256 rows, 480 columns, 960 nonzeros

CPU model: Intel(R) Xeon(R) E-2388G CPU @ 3.20GHz, instruction set [SSE2|AVX|AVX2|AVX512]
Thread count: 8 physical cores, 16 logical processors, using up to 16 threads

Optimize a model with 256 rows, 480 columns and 960 nonzeros
Model fingerprint: 0x4e80885f
Variable types: 240 continuous, 240 integer (240 binary)
Coefficient statistics:
  Matrix range     [1e+00, 1e+03]
  Objective range  [1e+00, 1e+03]
  Bounds range     [1e+00, 1e+03]
  RHS range        [4e+00, 4e+02]
Found heuristic solution: objective 19617.000000
Presolve time: 0.00s
Presolved: 256 rows, 480 columns, 960 nonzeros
Variable types: 240 continuous, 240 integer (240 binary)

Root relaxation: objective 2.769838e+03, 51 iterations, 0.00 seconds (0.00 work units)

    Nodes    |    Current Node    |     Objective Bounds      |     Work
 Expl Unexpl |  Obj  Depth IntInf | Incumbent    BestBd   Gap | It/Node Time

     0     0 2769.83800    0   14 19617.0000 2769.83800  85.9%     -    0s
H    0     0                    11359.000000 2769.83800  75.6%     -    0s
H    0     0                    11195.000000 2769.83800  75.3%     -    0s
H    0     0                    11074.000000 8116.87580  26.7%     -    0s
H    0     0                    10916.000000 8116.87580  25.6%     -    0s
     0     0 8116.87580    0   26 10916.0000 8116.87580  25.6%     -    0s
H    0     0                    10826.000000 8116.87580  25.0%     -    0s
     0     0 8742.09840    0   28 10826.0000 8742.09840  19.2%     -    0s
     0     0 8901.59669    0   25 10826.0000 8901.59669  17.8%     -    0s
     0     0 8901.59669    0   35 10826.0000 8901.59669  17.8%     -    0s
     0     0 8901.59669    0   37 10826.0000 8901.59669  17.8%     -    0s
     0     0 8915.83459    0   35 10826.0000 8915.83459  17.6%     -    0s
     0     0 8916.56684    0   35 10826.0000 8916.56684  17.6%     -    0s
     0     0 9068.62925    0   32 10826.0000 9068.62925  16.2%     -    0s
     0     0 9085.21149    0   31 10826.0000 9085.21149  16.1%     -    0s
H    0     0                    10779.000000 9098.29937  15.6%     -    0s
     0     0 9158.52555    0   31 10779.0000 9158.52555  15.0%     -    0s
H    0     0                    10732.000000 9158.52555  14.7%     -    0s
     0     0 9186.34204    0   31 10732.0000 9186.34204  14.4%     -    0s
H    0     0                    10681.000000 9186.34204  14.0%     -    0s
     0     2 9186.34204    0   31 10681.0000 9186.34204  14.0%     -    0s
H   78    80                    10678.000000 9400.40434  12.0%  58.9    0s
H  654   683                    10674.000000 9568.40789  10.4%  39.9    0s
  4670  3312 10312.0046   27   29 10674.0000 10268.9551  3.79%  74.2    5s
 22278 11000 10518.4145   35   14 10674.0000 10517.4515  1.47%  51.5   10s

Cutting planes:
  Gomory: 1
  Lift-and-project: 5
  Cover: 1
  Implied bound: 9
  MIR: 108
  Flow cover: 481
  Flow path: 48
  Zero half: 43
  Network: 27
  Relax-and-lift: 7

Explored 52936 nodes (1758975 simplex iterations) in 13.86 seconds (18.80 work units)
Thread count was 16 (of 16 available processors)

Solution count 10: 10674 10678 10681 ... 11359

Optimal solution found (tolerance 1.00e-04)
Best objective 1.067400000000e+04, best bound 1.067300000000e+04, gap 0.0094%
